RAW/CMTQ/fspd-long/CMT7Q.vrp_seed-2.out
900.6920473	139.177	259.005
