RAW/CMTQ/fspd-long/CMT7Q.vrp_seed-2.sol
Route #1: 75 4 52 46 34 67
Route #2: 68 62 22 64 42 1 73
Route #3: 26 58 10 31 39 72 12
Route #4: 38 65 66 11 53 35 8
Route #5: 27 57 15 5 47 48 29 45
Route #6: 17 40 44 3 24 49 16 51
Route #7: 36 71 60 70 20 37
Route #8: 30 74 21 69 61 28 2
Route #9: 6 33 43 41 56 23 63
Route #10: 13 54 19 59 14 7
Route #11: 32 50 18 55 25 9
Cost 900.692047